p cnf 1277
-20 -398
-21 -401
-22 -404
-23 -407
-24 -410
-25 -413
-26 -416
-27 -419
-28 -422
-29 -425
-30 -428
-31 -431
-32 -434
-33 -437
-34 -440
-35 -443
-36 -446
-37 -449
-38 -452
-39 453
-40 454
-41 455
-42 456
-43 457
-44 458
-45 459
-46 460
-47 461
-48 -21
-48 -22
21 22 48
-49 -23
-49 -24
23 24 49
-50 -25
-50 -26
25 26 50
-51 -27
-51 -28
27 28 51
-52 -29
-52 -30
29 30 52
-53 -31
-53 -32
31 32 53
-54 -33
-54 -34
33 34 54
-55 -35
-55 -36
35 36 55
-56 -37
-56 -38
37 38 56
-57 -39
-57 -40
39 40 57
-58 -41
-58 -42
41 42 58
-59 -43
-59 -44
43 44 59
-60 -45
-60 -46
45 46 60
-61 48
-61 49
-48 -49 61
-62 50
-62 51
-50 -51 62
-63 52
-63 53
-52 -53 63
-64 54
-64 55
-54 -55 64
-65 56
-65 57
-56 -57 65
-66 58
-66 59
-58 -59 66
-67 -47
-67 60
47 -60 67
-68 61
-68 62
-61 -62 68
-69 63
-69 64
-63 -64 69
-70 65
-70 66
-65 -66 70
-71 68
-71 69
-68 -69 71
-72 67
-72 70
-67 -70 72
-73 71
-73 72
-71 -72 73
-74 -20
-74 21
20 -21 74
-75 20
-75 -21
-20 21 75
-76 -74
-76 -75
74 75 76
-77 20
-77 21
-20 -21 77
-78 -20
-78 -76
20 76 78
-79 20
-79 76
-20 -76 79
-80 -78
-80 -79
78 79 80
-81 20
-81 -76
-20 76 81
-82 -77
-82 -81
77 81 82
-83 -21
-83 22
21 -22 83
-84 21
-84 -22
-21 22 84
-85 -83
-85 -84
83 84 85
-86 21
-86 22
-21 -22 86
-87 82
-87 -85
-82 85 87
-88 -82
-88 85
82 -85 88
-89 -87
-89 -88
87 88 89
-90 -82
-90 -85
82 85 90
-91 -86
-91 -90
86 90 91
-92 -22
-92 23
22 -23 92
-93 22
-93 -23
-22 23 93
-94 -92
-94 -93
92 93 94
-95 22
-95 23
-22 -23 95
-96 91
-96 -94
-91 94 96
-97 -91
-97 94
91 -94 97
-98 -96
-98 -97
96 97 98
-99 -91
-99 -94
91 94 99
-100 -95
-100 -99
95 99 100
-101 -23
-101 24
23 -24 101
-102 23
-102 -24
-23 24 102
-103 -101
-103 -102
101 102 103
-104 23
-104 24
-23 -24 104
-105 100
-105 -103
-100 103 105
-106 -100
-106 103
100 -103 106
-107 -105
-107 -106
105 106 107
-108 -100
-108 -103
100 103 108
-109 -104
-109 -108
104 108 109
-110 -24
-110 25
24 -25 110
-111 24
-111 -25
-24 25 111
-112 -110
-112 -111
110 111 112
-113 24
-113 25
-24 -25 113
-114 109
-114 -112
-109 112 114
-115 -109
-115 112
109 -112 115
-116 -114
-116 -115
114 115 116
-117 -109
-117 -112
109 112 117
-118 -113
-118 -117
113 117 118
-119 -25
-119 26
25 -26 119
-120 25
-120 -26
-25 26 120
-121 -119
-121 -120
119 120 121
-122 25
-122 26
-25 -26 122
-123 118
-123 -121
-118 121 123
-124 -118
-124 121
118 -121 124
-125 -123
-125 -124
123 124 125
-126 -118
-126 -121
118 121 126
-127 -122
-127 -126
122 126 127
-128 -26
-128 27
26 -27 128
-129 26
-129 -27
-26 27 129
-130 -128
-130 -129
128 129 130
-131 26
-131 27
-26 -27 131
-132 127
-132 -130
-127 130 132
-133 -127
-133 130
127 -130 133
-134 -132
-134 -133
132 133 134
-135 -127
-135 -130
127 130 135
-136 -131
-136 -135
131 135 136
-137 -27
-137 28
27 -28 137
-138 27
-138 -28
-27 28 138
-139 -137
-139 -138
137 138 139
-140 27
-140 28
-27 -28 140
-141 136
-141 -139
-136 139 141
-142 -136
-142 139
136 -139 142
-143 -141
-143 -142
141 142 143
-144 -136
-144 -139
136 139 144
-145 -140
-145 -144
140 144 145
-146 -28
-146 29
28 -29 146
-147 28
-147 -29
-28 29 147
-148 -146
-148 -147
146 147 148
-149 28
-149 29
-28 -29 149
-150 145
-150 -148
-145 148 150
-151 -145
-151 148
145 -148 151
-152 -150
-152 -151
150 151 152
-153 -145
-153 -148
145 148 153
-154 -149
-154 -153
149 153 154
-155 -29
-155 30
29 -30 155
-156 29
-156 -30
-29 30 156
-157 -155
-157 -156
155 156 157
-158 29
-158 30
-29 -30 158
-159 154
-159 -157
-154 157 159
-160 -154
-160 157
154 -157 160
-161 -159
-161 -160
159 160 161
-162 -154
-162 -157
154 157 162
-163 -158
-163 -162
158 162 163
-164 -30
-164 31
30 -31 164
-165 30
-165 -31
-30 31 165
-166 -164
-166 -165
164 165 166
-167 30
-167 31
-30 -31 167
-168 163
-168 -166
-163 166 168
-169 -163
-169 166
163 -166 169
-170 -168
-170 -169
168 169 170
-171 -163
-171 -166
163 166 171
-172 -167
-172 -171
167 171 172
-173 -31
-173 32
31 -32 173
-174 31
-174 -32
-31 32 174
-175 -173
-175 -174
173 174 175
-176 31
-176 32
-31 -32 176
-177 172
-177 -175
-172 175 177
-178 -172
-178 175
172 -175 178
-179 -177
-179 -178
177 178 179
-180 -172
-180 -175
172 175 180
-181 -176
-181 -180
176 180 181
-182 -32
-182 33
32 -33 182
-183 32
-183 -33
-32 33 183
-184 -182
-184 -183
182 183 184
-185 32
-185 33
-32 -33 185
-186 181
-186 -184
-181 184 186
-187 -181
-187 184
181 -184 187
-188 -186
-188 -187
186 187 188
-189 -181
-189 -184
181 184 189
-190 -185
-190 -189
185 189 190
-191 -33
-191 34
33 -34 191
-192 33
-192 -34
-33 34 192
-193 -191
-193 -192
191 192 193
-194 33
-194 34
-33 -34 194
-195 190
-195 -193
-190 193 195
-196 -190
-196 193
190 -193 196
-197 -195
-197 -196
195 196 197
-198 -190
-198 -193
190 193 198
-199 -194
-199 -198
194 198 199
-200 -34
-200 35
34 -35 200
-201 34
-201 -35
-34 35 201
-202 -200
-202 -201
200 201 202
-203 34
-203 35
-34 -35 203
-204 199
-204 -202
-199 202 204
-205 -199
-205 202
199 -202 205
-206 -204
-206 -205
204 205 206
-207 -199
-207 -202
199 202 207
-208 -203
-208 -207
203 207 208
-209 -35
-209 36
35 -36 209
-210 35
-210 -36
-35 36 210
-211 -209
-211 -210
209 210 211
-212 35
-212 36
-35 -36 212
-213 208
-213 -211
-208 211 213
-214 -208
-214 211
208 -211 214
-215 -213
-215 -214
213 214 215
-216 -208
-216 -211
208 211 216
-217 -212
-217 -216
212 216 217
-218 -36
-218 37
36 -37 218
-219 36
-219 -37
-36 37 219
-220 -218
-220 -219
218 219 220
-221 36
-221 37
-36 -37 221
-222 217
-222 -220
-217 220 222
-223 -217
-223 220
217 -220 223
-224 -222
-224 -223
222 223 224
-225 -217
-225 -220
217 220 225
-226 -221
-226 -225
221 225 226
-227 -37
-227 38
37 -38 227
-228 37
-228 -38
-37 38 228
-229 -227
-229 -228
227 228 229
-230 37
-230 38
-37 -38 230
-231 226
-231 -229
-226 229 231
-232 -226
-232 229
226 -229 232
-233 -231
-233 -232
231 232 233
-234 -226
-234 -229
226 229 234
-235 -230
-235 -234
230 234 235
-236 -38
-236 39
38 -39 236
-237 38
-237 -39
-38 39 237
-238 -236
-238 -237
236 237 238
-239 38
-239 39
-38 -39 239
-240 235
-240 -238
-235 238 240
-241 -235
-241 238
235 -238 241
-242 -240
-242 -241
240 241 242
-243 -235
-243 -238
235 238 243
-244 -239
-244 -243
239 243 244
-245 -39
-245 40
39 -40 245
-246 39
-246 -40
-39 40 246
-247 -245
-247 -246
245 246 247
-248 39
-248 40
-39 -40 248
-249 244
-249 -247
-244 247 249
-250 -244
-250 247
244 -247 250
-251 -249
-251 -250
249 250 251
-252 -244
-252 -247
244 247 252
-253 -248
-253 -252
248 252 253
-254 -40
-254 41
40 -41 254
-255 40
-255 -41
-40 41 255
-256 -254
-256 -255
254 255 256
-257 40
-257 41
-40 -41 257
-258 253
-258 -256
-253 256 258
-259 -253
-259 256
253 -256 259
-260 -258
-260 -259
258 259 260
-261 -253
-261 -256
253 256 261
-262 -257
-262 -261
257 261 262
-263 -41
-263 42
41 -42 263
-264 41
-264 -42
-41 42 264
-265 -263
-265 -264
263 264 265
-266 41
-266 42
-41 -42 266
-267 262
-267 -265
-262 265 267
-268 -262
-268 265
262 -265 268
-269 -267
-269 -268
267 268 269
-270 -262
-270 -265
262 265 270
-271 -266
-271 -270
266 270 271
-272 -42
-272 43
42 -43 272
-273 42
-273 -43
-42 43 273
-274 -272
-274 -273
272 273 274
-275 42
-275 43
-42 -43 275
-276 271
-276 -274
-271 274 276
-277 -271
-277 274
271 -274 277
-278 -276
-278 -277
276 277 278
-279 -271
-279 -274
271 274 279
-280 -275
-280 -279
275 279 280
-281 -43
-281 44
43 -44 281
-282 43
-282 -44
-43 44 282
-283 -281
-283 -282
281 282 283
-284 43
-284 44
-43 -44 284
-285 280
-285 -283
-280 283 285
-286 -280
-286 283
280 -283 286
-287 -285
-287 -286
285 286 287
-288 -280
-288 -283
280 283 288
-289 -284
-289 -288
284 288 289
-290 -44
-290 45
44 -45 290
-291 44
-291 -45
-44 45 291
-292 -290
-292 -291
290 291 292
-293 44
-293 45
-44 -45 293
-294 289
-294 -292
-289 292 294
-295 -289
-295 292
289 -292 295
-296 -294
-296 -295
294 295 296
-297 -289
-297 -292
289 292 297
-298 -293
-298 -297
293 297 298
-299 -45
-299 46
45 -46 299
-300 45
-300 -46
-45 46 300
-301 -299
-301 -300
299 300 301
-302 45
-302 46
-45 -46 302
-303 298
-303 -301
-298 301 303
-304 -298
-304 301
298 -301 304
-305 -303
-305 -304
303 304 305
-306 -298
-306 -301
298 301 306
-307 -302
-307 -306
302 306 307
-308 -46
-308 47
46 -47 308
-309 46
-309 -47
-46 47 309
-310 -308
-310 -309
308 309 310
-311 46
-311 47
-46 -47 311
-312 307
-312 -310
-307 310 312
-313 -307
-313 310
307 -310 313
-314 -312
-314 -313
312 313 314
-315 -307
-315 -310
307 310 315
-316 -311
-316 -315
311 315 316
-317 20
-317 -80
-20 80 317
-318 -20
-318 22
20 -22 318
-319 -317
-319 -318
317 318 319
-320 20
-320 -89
-20 89 320
-321 -20
-321 23
20 -23 321
-322 -320
-322 -321
320 321 322
-323 20
-323 -98
-20 98 323
-324 -20
-324 24
20 -24 324
-325 -323
-325 -324
323 324 325
-326 20
-326 -107
-20 107 326
-327 -20
-327 25
20 -25 327
-328 -326
-328 -327
326 327 328
-329 20
-329 -116
-20 116 329
-330 -20
-330 26
20 -26 330
-331 -329
-331 -330
329 330 331
-332 20
-332 -125
-20 125 332
-333 -20
-333 27
20 -27 333
-334 -332
-334 -333
332 333 334
-335 20
-335 -134
-20 134 335
-336 -20
-336 28
20 -28 336
-337 -335
-337 -336
335 336 337
-338 20
-338 -143
-20 143 338
-339 -20
-339 29
20 -29 339
-340 -338
-340 -339
338 339 340
-341 20
-341 -152
-20 152 341
-342 -20
-342 30
20 -30 342
-343 -341
-343 -342
341 342 343
-344 20
-344 -161
-20 161 344
-345 -20
-345 31
20 -31 345
-346 -344
-346 -345
344 345 346
-347 20
-347 -170
-20 170 347
-348 -20
-348 32
20 -32 348
-349 -347
-349 -348
347 348 349
-350 20
-350 -179
-20 179 350
-351 -20
-351 33
20 -33 351
-352 -350
-352 -351
350 351 352
-353 20
-353 -188
-20 188 353
-354 -20
-354 34
20 -34 354
-355 -353
-355 -354
353 354 355
-356 20
-356 -197
-20 197 356
-357 -20
-357 35
20 -35 357
-358 -356
-358 -357
356 357 358
-359 20
-359 -206
-20 206 359
-360 -20
-360 36
20 -36 360
-361 -359
-361 -360
359 360 361
-362 20
-362 -215
-20 215 362
-363 -20
-363 37
20 -37 363
-364 -362
-364 -363
362 363 364
-365 20
-365 -224
-20 224 365
-366 -20
-366 38
20 -38 366
-367 -365
-367 -366
365 366 367
-368 20
-368 -233
-20 233 368
-369 -20
-369 39
20 -39 369
-370 -368
-370 -369
368 369 370
-371 20
-371 -242
-20 242 371
-372 -20
-372 40
20 -40 372
-373 -371
-373 -372
371 372 373
-374 20
-374 -251
-20 251 374
-375 -20
-375 41
20 -41 375
-376 -374
-376 -375
374 375 376
-377 20
-377 -260
-20 260 377
-378 -20
-378 42
20 -42 378
-379 -377
-379 -378
377 378 379
-380 20
-380 -269
-20 269 380
-381 -20
-381 43
20 -43 381
-382 -380
-382 -381
380 381 382
-383 20
-383 -278
-20 278 383
-384 -20
-384 44
20 -44 384
-385 -383
-385 -384
383 384 385
-386 20
-386 -287
-20 287 386
-387 -20
-387 45
20 -45 387
-388 -386
-388 -387
386 387 388
-389 20
-389 -296
-20 296 389
-390 -20
-390 46
20 -46 390
-391 -389
-391 -390
389 390 391
-392 20
-392 -305
-20 305 392
-393 -20
-393 47
20 -47 393
-394 -392
-394 -393
392 393 394
-395 20
-395 -314
-20 314 395
-396 1
-396 73
-1 -73 396
-397 -73
-397 74
73 -74 397
-398 -396
-398 -397
396 397 398
-399 2
-399 73
-2 -73 399
-400 -73
-400 -319
73 319 400
-401 -399
-401 -400
399 400 401
-402 3
-402 73
-3 -73 402
-403 -73
-403 -322
73 322 403
-404 -402
-404 -403
402 403 404
-405 4
-405 73
-4 -73 405
-406 -73
-406 -325
73 325 406
-407 -405
-407 -406
405 406 407
-408 5
-408 73
-5 -73 408
-409 -73
-409 -328
73 328 409
-410 -408
-410 -409
408 409 410
-411 6
-411 73
-6 -73 411
-412 -73
-412 -331
73 331 412
-413 -411
-413 -412
411 412 413
-414 7
-414 73
-7 -73 414
-415 -73
-415 -334
73 334 415
-416 -414
-416 -415
414 415 416
-417 8
-417 73
-8 -73 417
-418 -73
-418 -337
73 337 418
-419 -417
-419 -418
417 418 419
-420 9
-420 73
-9 -73 420
-421 -73
-421 -340
73 340 421
-422 -420
-422 -421
420 421 422
-423 10
-423 73
-10 -73 423
-424 -73
-424 -343
73 343 424
-425 -423
-425 -424
423 424 425
-426 11
-426 73
-11 -73 426
-427 -73
-427 -346
73 346 427
-428 -426
-428 -427
426 427 428
-429 12
-429 73
-12 -73 429
-430 -73
-430 -349
73 349 430
-431 -429
-431 -430
429 430 431
-432 13
-432 73
-13 -73 432
-433 -73
-433 -352
73 352 433
-434 -432
-434 -433
432 433 434
-435 14
-435 73
-14 -73 435
-436 -73
-436 -355
73 355 436
-437 -435
-437 -436
435 436 437
-438 15
-438 73
-15 -73 438
-439 -73
-439 -358
73 358 439
-440 -438
-440 -439
438 439 440
-441 16
-441 73
-16 -73 441
-442 -73
-442 -361
73 361 442
-443 -441
-443 -442
441 442 443
-444 17
-444 73
-17 -73 444
-445 -73
-445 -364
73 364 445
-446 -444
-446 -445
444 445 446
-447 18
-447 73
-18 -73 447
-448 -73
-448 -367
73 367 448
-449 -447
-449 -448
447 448 449
-450 19
-450 73
-19 -73 450
-451 -73
-451 -370
73 370 451
-452 -450
-452 -451
450 451 452
-453 -73
-453 -373
73 373 453
-454 -73
-454 -376
73 376 454
-455 -73
-455 -379
73 379 455
-456 -73
-456 -382
73 382 456
-457 -73
-457 -385
73 385 457
-458 -73
-458 -388
73 388 458
-459 -73
-459 -391
73 391 459
-460 -73
-460 -394
73 394 460
-461 -73
-461 395
73 -395 461
-462 -47
-462 316
47 -316 462
-463 20
-463 -462
-20 462 463
463
